% Auto-generated by scripts/generate_dzn.py
% problem_type   = regex
% instance       = regex_21
% source_json    = instances_json/1_medium_blowup/regex_21.json
% blowup         = 3.0
% representation = NFA

mode = 1;

var_count = 17;
Q = 7;
S = 3;
q0 = 1;
F = {7};
d_dfa = array2d(1..7, 1..3, [
  0, 0, 0,
  0, 0, 0,
  0, 0, 0,
  0, 0, 0,
  0, 0, 0,
  0, 0, 0,
  0, 0, 0
]);
d_nfa = array2d(1..7, 1..3, [
  {1, 2}, {1}, {1},
  {}, {3}, {},
  {4}, {4}, {4},
  {5}, {5}, {5},
  {6}, {6}, {6},
  {7}, {7}, {7},
  {}, {}, {}
]);
